data;


param d:= 100;
param r:=5;
param p:=0.840000;
param M:=1000;
param U:=
         1         1       -4.993831e-01
         2         1       -1.130326e+00
         3         1       -5.797306e-01
         4         1        4.230507e-02
         5         1        1.680837e+00
         6         1       -5.802633e-01
         7         1       -1.714715e-01
         8         1        7.460897e-02
         9         1       -9.680998e-01
        10         1       -7.922094e-01
        11         1       -2.342827e-01
        12         1       -3.018552e+00
        13         1        6.431285e-01
        14         1        1.451917e+00
        15         1        1.781882e-01
        16         1        1.412233e+00
        17         1       -1.249064e-01
        18         1       -2.367872e-01
        19         1        3.938892e-01
        20         1       -1.779806e-01
        21         1        1.296265e+00
        22         1        2.056255e+00
        23         1       -2.030291e-01
        24         1       -8.013973e-01
        25         1       -2.124789e+00
        26         1        2.162589e+00
        27         1       -1.068044e+00
        28         1        2.052220e-01
        29         1        5.791190e-01
        30         1       -1.653075e-01
        31         1        1.457956e+00
        32         1        2.050836e-01
        33         1       -3.317192e-01
        34         1       -9.334133e-02
        35         1       -6.697528e-01
        36         1        1.422054e-01
        37         1        3.341465e-01
        38         1       -8.545480e-01
        39         1       -2.316622e-01
        40         1       -1.618414e-01
        41         1       -5.465585e-01
        42         1       -1.625296e-01
        43         1        9.031023e-01
        44         1       -6.417848e-02
        45         1        9.772913e-01
        46         1        6.213496e-01
        47         1       -2.847538e-01
        48         1        3.248723e-02
        49         1       -7.613636e-01
        50         1       -3.407251e+00
        51         1        1.705304e+00
        52         1        8.812194e-01
        53         1       -1.575572e+00
        54         1       -2.140498e-01
        55         1        2.230824e-01
        56         1        5.052533e-01
        57         1       -2.537977e-01
        58         1        3.802011e-01
        59         1       -7.732752e-01
        60         1        1.239129e+00
        61         1        1.167725e+00
        62         1        1.191870e+00
        63         1       -1.685547e+00
        64         1        3.547574e-01
        65         1        1.269796e-01
        66         1        4.959803e-01
        67         1        7.437202e-02
        68         1        4.675581e-01
        69         1       -7.194270e-01
        70         1       -1.294004e+00
        71         1       -8.038379e-01
        72         1       -1.421336e+00
        73         1        9.031507e-01
        74         1        2.313620e+00
        75         1        4.799953e-01
        76         1        2.259293e+00
        77         1        5.828732e-01
        78         1        4.191057e-01
        79         1        1.486190e+00
        80         1       -3.478546e-01
        81         1        5.164102e-01
        82         1        4.286422e-01
        83         1       -1.080650e+00
        84         1        5.936993e-01
        85         1       -5.906202e-02
        86         1        3.789125e-01
        87         1       -2.991188e-01
        88         1       -1.051970e-01
        89         1       -2.328058e+00
        90         1       -8.557551e-01
        91         1       -9.693839e-01
        92         1        3.513686e-01
        93         1       -2.143939e-01
        94         1       -8.834904e-01
        95         1       -9.132265e-01
        96         1       -4.988200e-01
        97         1       -1.340414e+00
        98         1       -6.746319e-01
        99         1       -1.692056e+00
       100         1        8.842316e-01
         1         2        8.428490e-01
         2         2        6.732936e-01
         3         2       -2.671294e-01
         4         2        1.786394e+00
         5         2        2.739757e+00
         6         2        5.385917e-01
         7         2       -1.455585e+00
         8         2       -3.288579e-01
         9         2        1.915268e-01
        10         2        4.651827e-01
        11         2       -1.876333e-01
        12         2        2.987264e-01
        13         2       -2.325578e-01
        14         2        4.252008e-03
        15         2        2.066646e-02
        16         2       -5.619282e-01
        17         2        2.369909e+00
        18         2       -5.721175e-01
        19         2       -2.186635e+00
        20         2       -1.554478e+00
        21         2        6.740846e-01
        22         2       -1.396806e+00
        23         2        6.890482e-01
        24         2        1.593401e+00
        25         2       -5.277853e-01
        26         2        1.261719e+00
        27         2       -2.070059e-01
        28         2       -4.766805e-01
        29         2        5.259757e-01
        30         2        1.029592e+00
        31         2        6.326700e-01
        32         2        9.646157e-01
        33         2       -5.304050e-01
        34         2       -8.481755e-01
        35         2       -5.448042e-01
        36         2        6.324334e-01
        37         2        4.304578e-01
        38         2       -6.601502e-01
        39         2        1.010897e+00
        40         2       -3.928642e-01
        41         2       -1.527715e+00
        42         2       -3.993194e-01
        43         2        3.889954e-01
        44         2       -8.244300e-01
        45         2        5.590143e-01
        46         2       -5.091378e-01
        47         2        1.686805e+00
        48         2        5.580096e-01
        49         2        1.197616e+00
        50         2       -2.168052e-01
        51         2       -1.213649e+00
        52         2       -3.701093e-01
        53         2       -2.822042e-01
        54         2        3.255025e-01
        55         2        4.357430e-02
        56         2        3.513542e-01
        57         2       -4.822063e-01
        58         2       -1.175196e-01
        59         2       -1.788712e+00
        60         2        1.251894e+00
        61         2        7.846645e-03
        62         2        6.082065e-01
        63         2       -3.300502e-02
        64         2       -2.430954e-01
        65         2        5.541698e-01
        66         2        7.469641e-01
        67         2        8.614515e-01
        68         2       -3.277968e-01
        69         2        1.223236e+00
        70         2        2.408517e-01
        71         2        1.487545e+00
        72         2        9.273226e-02
        73         2       -2.546845e-01
        74         2        8.261154e-01
        75         2       -9.392767e-01
        76         2        7.455489e-01
        77         2        5.766949e-02
        78         2        6.160425e-01
        79         2        1.601877e-01
        80         2       -6.524563e-01
        81         2       -1.209455e+00
        82         2       -3.470312e-01
        83         2       -1.467122e+00
        84         2        4.421222e-01
        85         2       -2.960376e-01
        86         2       -1.050888e+00
        87         2       -6.224909e-01
        88         2        6.851334e-01
        89         2       -1.003670e+00
        90         2        6.789048e-01
        91         2       -1.816138e+00
        92         2       -7.793118e-02
        93         2        7.887954e-01
        94         2       -9.651239e-02
        95         2        9.308623e-01
        96         2        9.818978e-01
        97         2       -8.941277e-01
        98         2       -1.135294e+00
        99         2        1.143417e-01
       100         2       -1.789844e+00
         1         3       -8.815384e-01
         2         3       -5.280466e-01
         3         3        8.406817e-01
         4         3        6.004935e-01
         5         3       -1.747673e+00
         6         3       -4.846022e-01
         7         3        3.586489e-01
         8         3       -1.383486e+00
         9         3       -4.326388e-01
        10         3       -2.906053e-01
        11         3        1.462835e+00
        12         3        7.616445e-01
        13         3       -2.139812e-01
        14         3        2.356136e-01
        15         3       -2.903923e-01
        16         3        9.623932e-01
        17         3        1.494464e+00
        18         3       -4.323875e-01
        19         3        1.055045e+00
        20         3        1.480508e+00
        21         3        2.839660e-01
        22         3        5.203101e-01
        23         3        7.852867e-01
        24         3        7.855684e-01
        25         3        1.901359e+00
        26         3       -1.638743e-01
        27         3        1.394517e+00
        28         3       -3.009771e-01
        29         3       -1.467059e+00
        30         3        6.488176e-01
        31         3       -1.663517e+00
        32         3       -2.153918e+00
        33         3        6.780863e-01
        34         3       -1.007952e+00
        35         3        3.408451e-01
        36         3       -2.520624e-01
        37         3        7.849402e-01
        38         3       -2.183392e-01
        39         3        1.539437e+00
        40         3       -1.329856e+00
        41         3       -1.490611e-01
        42         3        2.578861e-01
        43         3       -1.794722e-01
        44         3       -1.064320e+00
        45         3        6.226147e-01
        46         3       -7.432582e-01
        47         3       -2.194775e+00
        48         3       -1.455510e+00
        49         3       -9.251129e-01
        50         3        4.747471e-01
        51         3        5.041888e-02
        52         3        2.441103e-01
        53         3       -3.753002e-01
        54         3        8.961570e-01
        55         3        1.448505e+00
        56         3       -1.787065e+00
        57         3       -2.170847e-01
        58         3       -1.012282e+00
        59         3        2.227951e-01
        60         3       -2.229230e+00
        61         3        1.292104e+00
        62         3       -1.292765e-01
        63         3        1.478266e+00
        64         3        3.844950e-01
        65         3        9.032779e-01
        66         3        3.969284e-01
        67         3       -5.983974e-01
        68         3        9.058758e-01
        69         3       -1.031310e+00
        70         3        2.494351e-01
        71         3       -1.562424e+00
        72         3       -2.407655e-01
        73         3        4.567583e-01
        74         3        8.987173e-01
        75         3        4.446506e-01
        76         3        4.725861e-01
        77         3       -9.330982e-01
        78         3        4.465388e-01
        79         3       -6.191983e-01
        80         3        2.217770e+00
        81         3        1.238899e+00
        82         3        1.165567e+00
        83         3        5.061552e-01
        84         3        6.641972e-01
        85         3       -4.574658e-01
        86         3       -1.322735e+00
        87         3       -1.093360e+00
        88         3       -1.029701e+00
        89         3       -2.848786e-01
        90         3       -1.597317e+00
        91         3        1.993428e+00
        92         3        1.877486e-01
        93         3       -8.185850e-01
        94         3        6.962261e-01
        95         3        4.755683e-01
        96         3       -2.852992e-01
        97         3        1.065022e+00
        98         3        4.125033e-01
        99         3        3.244599e-01
       100         3        5.665226e-01
         1         4        1.213614e+00
         2         4       -2.660667e-01
         3         4       -2.430718e-01
         4         4        6.627322e-01
         5         4       -4.778717e-01
         6         4       -2.042129e-01
         7         4       -1.017751e+00
         8         4        4.737922e-01
         9         4       -3.451378e-01
        10         4        1.459998e+00
        11         4        2.031829e-01
        12         4        1.372531e+00
        13         4       -4.275141e-01
        14         4       -8.711697e-01
        15         4       -1.247303e+00
        16         4        1.852152e-01
        17         4       -2.554598e-01
        18         4       -5.299369e-01
        19         4       -9.500424e-01
        20         4        3.352917e-02
        21         4       -9.869489e-01
        22         4        9.986114e-01
        23         4       -8.092100e-02
        24         4        2.225159e-01
        25         4       -1.109007e+00
        26         4       -1.078298e+00
        27         4       -9.717003e-01
        28         4        8.305491e-01
        29         4        1.145025e+00
        30         4       -5.837366e-01
        31         4        1.701953e-01
        32         4        7.156304e-02
        33         4       -1.057841e+00
        34         4        4.399503e-01
        35         4        1.096238e-01
        36         4       -3.851387e-01
        37         4        4.514265e-01
        38         4       -1.117558e+00
        39         4        4.417477e-01
        40         4       -4.048083e-01
        41         4       -1.116436e+00
        42         4        4.688696e-01
        43         4        4.272215e-01
        44         4        3.660769e-01
        45         4        9.715563e-01
        46         4        3.386382e-01
        47         4        1.710259e-02
        48         4        4.912579e-01
        49         4       -1.386239e+00
        50         4       -1.038162e+00
        51         4        6.472702e-01
        52         4        1.881830e+00
        53         4       -1.114568e-02
        54         4       -1.635205e+00
        55         4       -3.107839e-01
        56         4        1.049204e+00
        57         4        1.182072e+00
        58         4       -1.613137e-01
        59         4        1.027265e-01
        60         4       -1.564150e-02
        61         4       -7.531894e-01
        62         4        8.787103e-01
        63         4       -3.931821e-01
        64         4       -4.606196e-01
        65         4        6.799224e-01
        66         4        1.931884e-01
        67         4        9.191052e-01
        68         4       -2.571210e-01
        69         4        7.660577e-02
        70         4        1.279823e-01
        71         4        6.777898e-01
        72         4        1.271177e+00
        73         4        9.219973e-01
        74         4       -2.187808e-02
        75         4       -1.754570e+00
        76         4        2.713938e-01
        77         4       -1.383430e+00
        78         4        1.755409e+00
        79         4       -1.925418e+00
        80         4        1.801985e-01
        81         4        1.021885e-01
        82         4        7.222226e-01
        83         4        5.636684e-01
        84         4        7.165315e-01
        85         4       -6.938596e-01
        86         4       -7.626730e-01
        87         4       -9.746725e-01
        88         4        6.167125e-01
        89         4       -1.152824e+00
        90         4       -5.449945e-01
        91         4        4.276512e-01
        92         4        2.247462e-01
        93         4       -1.556475e-01
        94         4       -9.718329e-02
        95         4        1.010660e+00
        96         4        2.554733e-01
        97         4        4.055628e-01
        98         4        6.650583e-02
        99         4       -1.064668e+00
       100         4       -4.500346e-01
         1         5       -6.036766e-01
         2         5        2.114628e-01
         3         5        1.738272e+00
         4         5        8.772010e-02
         5         5        6.746198e-01
         6         5        1.216394e+00
         7         5        9.965447e-01
         8         5        1.541349e+00
         9         5       -9.775033e-01
        10         5       -1.178309e-01
        11         5        1.430000e+00
        12         5        7.586521e-02
        13         5       -5.316198e-01
        14         5       -4.064952e-01
        15         5       -7.125221e-01
        16         5       -1.496962e+00
        17         5       -1.936337e+00
        18         5       -1.410884e-01
        19         5        8.486751e-01
        20         5       -3.425031e-01
        21         5        1.198834e+00
        22         5        5.257584e-01
        23         5       -1.348861e+00
        24         5        5.065355e-01
        25         5       -7.952641e-01
        26         5       -1.498629e+00
        27         5        9.530980e-01
        28         5        7.322048e-01
        29         5       -4.407356e-01
        30         5        1.011573e+00
        31         5       -2.146059e-01
        32         5       -1.903351e-01
        33         5       -4.625622e-01
        34         5        9.786385e-01
        35         5       -2.865448e-01
        36         5        1.976290e-01
        37         5        4.429207e-01
        38         5       -8.137480e-01
        39         5       -7.712541e-01
        40         5        1.383308e+00
        41         5       -3.785180e-01
        42         5        1.247604e+00
        43         5       -1.333180e+00
        44         5        2.662940e-01
        45         5        3.007537e-01
        46         5       -2.555920e-01
        47         5        2.805548e+00
        48         5        2.328194e-01
        49         5        1.341365e-01
        50         5       -3.541345e-01
        51         5       -7.384115e-01
        52         5        5.848475e-01
        53         5        1.303671e-02
        54         5       -1.241616e+00
        55         5       -1.444905e-01
        56         5       -5.502191e-02
        57         5       -1.480526e+00
        58         5       -7.236773e-01
        59         5        6.008901e-01
        60         5        1.071341e+00
        61         5        9.181667e-01
        62         5       -6.066047e-01
        63         5        1.049983e+00
        64         5        5.827535e-02
        65         5       -7.281318e-02
        66         5       -8.121269e-01
        67         5       -1.655686e+00
        68         5       -1.908467e-01
        69         5       -5.298425e-01
        70         5       -2.554369e-01
        71         5       -1.200447e+00
        72         5       -7.210981e-01
        73         5       -7.867600e-01
        74         5        4.422970e-01
        75         5       -1.286983e+00
        76         5       -9.401607e-01
        77         5       -3.755503e-01
        78         5        6.402823e-01
        79         5        6.075625e-01
        80         5        5.819885e-01
        81         5        1.657194e-02
        82         5        1.057926e+00
        83         5        4.092873e-01
        84         5       -9.374422e-01
        85         5       -9.095992e-01
        86         5        1.081805e+00
        87         5        7.217056e-01
        88         5       -1.194636e-01
        89         5       -2.417263e-01
        90         5        6.262812e-01
        91         5       -6.169789e-01
        92         5       -3.026324e-01
        93         5        1.950430e+00
        94         5        1.002355e+00
        95         5        1.089743e+00
        96         5        8.613022e-01
        97         5        2.646978e-01
        98         5       -4.749501e-01
        99         5       -8.085422e-02
       100         5       -3.497366e-01
;

param theta:=
    1        4.467550e-01
    2       -9.492424e-01
    3        7.881356e-01
    4        9.867745e-02
    5        2.301592e-02
;
param X_true:=
    1       -1.613114e+00
    2       -1.582176e+00
    3        6.732766e-01
    4       -1.136229e+00
    5       -3.259134e+00
    6       -1.144969e+00
    7        1.510854e+00
    8       -6.613329e-01
    9       -1.011583e+00
   10       -8.820216e-01
   11        1.279346e+00
   12       -8.947796e-01
   13        2.846046e-01
   14        7.366089e-01
   15       -3.083468e-01
   16        1.907194e+00
   17       -1.196462e+00
   18        4.342791e-02
   19        3.008368e+00
   20        2.559193e+00
   21        9.332392e-02
   22        2.765666e+00
   23       -1.653666e-01
   24       -1.218718e+00
   25        9.215940e-01
   26       -5.026031e-01
   27        7.455706e-01
   28        4.073528e-01
   29       -1.293578e+00
   30       -5.731714e-01
   31       -1.251058e+00
   32       -2.518695e+00
   33        7.751038e-01
   34        3.535716e-02
   35        4.901221e-01
   36       -7.690136e-01
   37        4.147108e-01
   38       -5.606748e-02
   39        1.763465e-01
   40       -7.570869e-01
   41        9.693511e-01
   42        5.840928e-01
   43       -9.598106e-02
   44       -4.197026e-02
   45        4.989162e-01
   46        2.034412e-01
   47       -3.392135e+00
   48       -1.608117e+00
   49       -2.339480e+00
   50       -1.052292e+00
   51        2.001497e+00
   52        1.135633e+00
   53       -7.323394e-01
   54        1.112065e-01
   55        1.168185e+00
   56       -1.414870e+00
   57        2.549316e-01
   58       -5.487156e-01
   59        1.551763e+00
   60       -2.368167e+00
   61        1.479508e+00
   62       -7.502980e-02
   63        4.296599e-01
   64        6.483089e-01
   65        3.067936e-01
   66       -1.732185e-01
   67       -1.204499e+00
   68        1.201971e+00
   69       -2.300677e+00
   70       -6.038802e-01
   71       -2.961634e+00
   72       -8.049731e-01
   73        1.078668e+00
   74        9.656200e-01
   75        1.255046e+00
   76        6.783354e-01
   77       -6.753484e-01
   78        1.417375e-01
   79       -1.515667e-01
   80        2.244299e+00
   81        2.366144e+00
   82        1.534850e+00
   83        1.374299e+00
   84        4.178427e-01
   85       -1.960229e-01
   86        7.305268e-02
   87       -4.825471e-01
   88       -1.452692e+00
   89       -4.330640e-01
   90       -2.326585e+00
   91        2.888691e+00
   92        3.934238e-01
   93       -1.458812e+00
   94        2.596186e-01
   95       -7.917066e-01
   96       -1.333168e+00
   97        1.135592e+00
   98        1.097547e+00
   99       -7.163503e-01
  100        2.488444e+00
;
param X:=
    1        2.642628e-01
    2        7.131177e-01
    3        5.589483e-01
    4       -5.062827e-01
    5        7.023469e-01
    6       -4.718686e-01
    7        3.781054e-01
    8       -7.297871e-01
    9       -4.535342e-01
   10        7.340828e-01
   11        3.886370e-01
   12       -8.947796e-01
   13       -3.725705e-01
   14       -1.366862e+00
   15       -3.083468e-01
   16        1.907194e+00
   17       -1.503837e+00
   18        1.488464e+00
   19        9.432598e-01
   20        1.189967e+00
   21       -7.891692e-01
   22       -5.673657e-01
   23        1.008227e+00
   24        8.972617e-01
   25       -2.993699e-01
   26       -1.578809e+00
   27        7.455706e-01
   28       -1.522147e+00
   29       -1.177018e+00
   30       -9.622290e-01
   31       -2.493802e-01
   32        6.237276e-01
   33        7.751038e-01
   34        6.346859e-01
   35        1.078958e+00
   36       -2.764989e-01
   37        9.297185e-02
   38        1.701589e+00
   39       -1.738872e+00
   40        8.040130e-01
   41        9.693511e-01
   42        1.878333e+00
   43        4.457357e-01
   44        6.270240e-01
   45       -2.741137e-01
   46        8.737383e-02
   47       -2.472426e+00
   48       -8.134598e-01
   49       -2.339480e+00
   50        5.829645e-01
   51        3.556721e-01
   52        1.135633e+00
   53       -9.038791e-01
   54        1.112065e-01
   55        7.725131e-01
   56       -1.015149e+00
   57        2.408724e+00
   58        2.474629e+00
   59       -1.243042e+00
   60        9.726951e-01
   61        1.479508e+00
   62        1.114296e+00
   63       -1.024208e-01
   64       -1.291807e+00
   65       -1.806504e+00
   66        2.338545e-01
   67       -9.541483e-01
   68        2.780478e-01
   69        8.351202e-01
   70        8.033642e-01
   71       -2.961634e+00
   72       -7.596010e-01
   73       -1.971116e-01
   74        9.656200e-01
   75        1.751498e+00
   76       -2.161775e+00
   77        2.219326e-01
   78        8.461792e-01
   79        2.369732e+00
   80        9.394221e-02
   81        1.017663e+00
   82        6.096352e-01
   83        7.657739e-01
   84        2.513224e-01
   85        1.543815e-01
   86        2.468721e-01
   87       -6.172764e-01
   88       -1.432099e+00
   89        9.194469e-01
   90        3.390081e-01
   91        2.888691e+00
   92        5.251031e-01
   93        1.824606e-01
   94       -1.316210e+00
   95        3.204342e-01
   96       -1.333168e+00
   97       -4.523928e-01
   98        1.097547e+00
   99       -2.621207e-01
  100       -1.055084e-01
;
param outliervec:=
    1    1
    2    1
    3    1
    4    1
    5    1
    6    1
    7    1
    8    1
    9    1
   10    1
   11    1
   12    0
   13    1
   14    1
   15    0
   16    0
   17    1
   18    1
   19    1
   20    1
   21    1
   22    1
   23    1
   24    1
   25    1
   26    1
   27    0
   28    1
   29    1
   30    1
   31    1
   32    1
   33    0
   34    1
   35    1
   36    1
   37    1
   38    1
   39    1
   40    1
   41    0
   42    1
   43    1
   44    1
   45    1
   46    1
   47    1
   48    1
   49    0
   50    1
   51    1
   52    0
   53    1
   54    0
   55    1
   56    1
   57    1
   58    1
   59    1
   60    1
   61    0
   62    1
   63    1
   64    1
   65    1
   66    1
   67    1
   68    1
   69    1
   70    1
   71    0
   72    1
   73    1
   74    0
   75    1
   76    1
   77    1
   78    1
   79    1
   80    1
   81    1
   82    1
   83    1
   84    1
   85    1
   86    1
   87    1
   88    1
   89    1
   90    1
   91    0
   92    1
   93    1
   94    1
   95    1
   96    0
   97    1
   98    0
   99    1
  100    1
;